etc/upTests/_functions/funcSet/0004.eprime.solution
language ESSENCE' 1.0
$ minion Nodes: 1
$ minion TotalTime: 0.000987
$ Savile Row TotalTime: 0.513
letting f_AsReln_RelationAsSet_SetExplicitVarSizeWithMarker_tuple1 be 3
letting f_AsReln_RelationAsSet_SetExplicitVarSizeWithMarker_tuple2_tuple1 be [2, 3, 4;int(1..3)]
letting f_AsReln_RelationAsSet_SetExplicitVarSizeWithMarker_tuple2_tuple2_SetOccurrence be [[true, true;int(5..6)], 
[true, true;int(5..6)], 
[true, true;int(5..6)];int(1..3)]
